
n_res = 6;
rcap = [15, 16, 16, 15, 910, 901];
rtype = [1, 1, 1, 1, 2, 2];
n_tasks = 50;
modes =  [{1, 2, 3, 4, 5, 6}, {7, 8, 9, 10, 11, 12}, {13, 14, 15, 16, 17, 18}, {19, 20, 21, 22, 23, 24}, {25, 26, 27, 28, 29, 30}, {31, 32, 33, 34, 35, 36}, {37, 38, 39, 40, 41, 42}, {43, 44, 45, 46, 47, 48}, {49, 50, 51, 52, 53, 54}, {55, 56, 57, 58, 59, 60}, {61, 62, 63, 64, 65, 66}, {67, 68, 69, 70, 71, 72}, {73, 74, 75, 76, 77, 78}, {79, 80, 81, 82, 83, 84}, {85, 86, 87, 88, 89, 90}, {91, 92, 93, 94, 95, 96}, {97, 98, 99, 100, 101, 102}, {103, 104, 105, 106, 107, 108}, {109, 110, 111, 112, 113, 114}, {115, 116, 117, 118, 119, 120}, {121, 122, 123, 124, 125, 126}, {127, 128, 129, 130, 131, 132}, {133, 134, 135, 136, 137, 138}, {139, 140, 141, 142, 143, 144}, {145, 146, 147, 148, 149, 150}, {151, 152, 153, 154, 155, 156}, {157, 158, 159, 160, 161, 162}, {163, 164, 165, 166, 167, 168}, {169, 170, 171, 172, 173, 174}, {175, 176, 177, 178, 179, 180}, {181, 182, 183, 184, 185, 186}, {187, 188, 189, 190, 191, 192}, {193, 194, 195, 196, 197, 198}, {199, 200, 201, 202, 203, 204}, {205, 206, 207, 208, 209, 210}, {211, 212, 213, 214, 215, 216}, {217, 218, 219, 220, 221, 222}, {223, 224, 225, 226, 227, 228}, {229, 230, 231, 232, 233, 234}, {235, 236, 237, 238, 239, 240}, {241, 242, 243, 244, 245, 246}, {247, 248, 249, 250, 251, 252}, {253, 254, 255, 256, 257, 258}, {259, 260, 261, 262, 263, 264}, {265, 266, 267, 268, 269, 270}, {271, 272, 273, 274, 275, 276}, {277, 278, 279, 280, 281, 282}, {283, 284, 285, 286, 287, 288}, {289, 290, 291, 292, 293, 294}, {295, 296, 297, 298, 299, 300}];
succ =  [{47, 32, 25, 15, 11, 8}, {50, 49, 47, 45, 34, 33, 32, 28, 25, 18, 15}, {47, 40, 32, 22, 20, 18, 15}, {47, 46, 44, 43, 42, 41, 39, 38, 32, 31, 29, 24, 22}, {43, 39, 32, 29, 26, 22, 18}, {49, 47, 45, 43, 42, 40, 39, 35, 18}, {49, 45, 44, 32, 29, 28, 25, 19}, {48, 45, 43, 39, 34, 28, 18}, {46, 44, 43, 41, 39, 37, 33, 29, 25}, {49, 46, 43, 41, 40, 38, 35, 28, 27}, {49, 48, 44, 42, 35, 30, 21}, {48, 47, 45, 44, 40, 37, 31, 30, 29}, {47, 42, 41, 37, 33, 31, 30, 28}, {44, 43, 42, 38, 37, 34, 28, 26}, {48, 43, 42, 39, 38, 37, 31, 29}, {47, 46, 43, 40, 39, 36, 25}, {49, 39, 37, 32, 28, 26}, {46, 44, 41, 37, 36, 30}, {42, 41, 39, 38, 37, 33}, {49, 42, 38, 37, 31}, {50, 39, 38, 37, 36}, {48, 45, 28}, {45, 43, 29}, {40, 37, 36}, {42, 38}, {41, 36}, {47, 39}, {36}, {36}, {38}, {36}, {36}, {40}, {40}, {37}, {}, {}, {}, {}, {}, {}, {}, {}, {}, {}, {}, {}, {}, {}, {}];
n_opt = 300;
dur = [10, 16, 17, 19, 26, 29, 8, 11, 13, 14, 17, 23, 5, 11, 16, 22, 23, 25, 12, 15, 16, 19, 26, 29, 2, 8, 19, 20, 24, 28, 12, 13, 15, 26, 29, 30, 5, 6, 8, 10, 15, 29, 9, 11, 15, 22, 24, 30, 2, 6, 9, 21, 26, 28, 8, 9, 13, 21, 24, 27, 2, 18, 21, 23, 24, 26, 3, 5, 15, 17, 19, 20, 6, 19, 20, 23, 24, 30, 2, 3, 5, 6, 25, 26, 5, 6, 9, 21, 24, 28, 1, 3, 12, 13, 24, 25, 3, 5, 10, 26, 28, 29, 3, 7, 8, 9, 12, 22, 3, 9, 11, 21, 25, 29, 5, 10, 16, 19, 20, 21, 1, 5, 7, 21, 25, 28, 7, 8, 13, 15, 29, 30, 2, 3, 10, 12, 18, 19, 6, 8, 15, 16, 17, 19, 9, 10, 12, 17, 27, 28, 5, 15, 17, 18, 22, 27, 1, 3, 7, 25, 27, 28, 13, 14, 16, 18, 24, 26, 9, 10, 11, 15, 16, 28, 4, 6, 8, 9, 10, 25, 8, 12, 14, 20, 24, 25, 3, 4, 6, 18, 22, 23, 3, 10, 21, 22, 23, 29, 1, 8, 9, 10, 18, 19, 10, 11, 16, 20, 25, 27, 9, 18, 19, 24, 25, 30, 9, 11, 18, 20, 21, 28, 11, 19, 20, 21, 28, 30, 4, 14, 15, 18, 23, 28, 1, 4, 6, 10, 21, 26, 5, 12, 13, 14, 15, 21, 7, 11, 17, 18, 19, 26, 1, 6, 14, 22, 23, 29, 1, 5, 11, 12, 17, 20, 3, 7, 10, 25, 26, 29, 2, 3, 9, 10, 16, 26, 5, 13, 15, 20, 21, 26, 5, 13, 14, 15, 27, 28, 3, 14, 17, 19, 20, 25, 17, 20, 22, 24, 27, 28];
rreq = [|2, 1, 1, 1, 1, 1, 4, 4, 3, 3, 2, 1, 3, 2, 2, 2, 1, 1, 4, 4, 4, 3, 3, 3, 3, 3, 3, 3, 3, 3, 4, 3, 2, 2, 1, 1, 5, 4, 3, 3, 2, 1, 5, 4, 3, 3, 3, 2, 2, 2, 2, 2, 2, 2, 4, 3, 3, 3, 3, 3, 2, 1, 1, 1, 1, 1, 3, 3, 3, 3, 3, 3, 3, 3, 3, 3, 3, 3, 3, 3, 3, 3, 2, 2, 2, 2, 2, 2, 2, 2, 2, 2, 2, 2, 2, 2, 2, 1, 1, 1, 1, 1, 2, 2, 2, 2, 2, 2, 4, 4, 4, 3, 2, 2, 5, 5, 5, 5, 5, 5, 5, 4, 4, 3, 3, 3, 4, 4, 4, 4, 3, 3, 2, 1, 1, 1, 1, 1, 5, 4, 3, 2, 2, 1, 4, 4, 3, 3, 2, 2, 3, 2, 2, 2, 2, 2, 1, 1, 1, 1, 1, 1, 4, 4, 4, 4, 4, 4, 4, 4, 4, 3, 2, 2, 3, 3, 3, 3, 3, 3, 3, 3, 3, 3, 3, 3, 4, 4, 4, 4, 3, 3, 1, 1, 1, 1, 1, 1, 2, 1, 1, 1, 1, 1, 4, 3, 3, 3, 3, 3, 4, 4, 4, 4, 3, 3, 5, 4, 3, 3, 1, 1, 2, 1, 1, 1, 1, 1, 4, 4, 3, 3, 2, 2, 3, 3, 3, 3, 3, 3, 3, 2, 2, 1, 1, 1, 5, 4, 3, 3, 2, 2, 1, 1, 1, 1, 1, 1, 5, 4, 4, 3, 3, 3, 5, 4, 4, 4, 4, 4, 4, 3, 3, 3, 3, 3, 3, 3, 3, 3, 3, 3, 3, 2, 2, 2, 1, 1, 4, 3, 3, 2, 2, 2, 1, 1, 1, 1, 1, 1
 |4, 4, 4, 4, 4, 4, 4, 3, 3, 3, 3, 3, 1, 1, 1, 1, 1, 1, 4, 4, 4, 3, 3, 3, 5, 3, 3, 2, 1, 1, 2, 2, 2, 2, 2, 2, 5, 4, 4, 3, 3, 3, 4, 3, 3, 2, 2, 2, 1, 1, 1, 1, 1, 1, 2, 2, 2, 2, 2, 2, 1, 1, 1, 1, 1, 1, 3, 3, 3, 3, 3, 3, 4, 3, 3, 3, 3, 3, 2, 2, 2, 2, 2, 2, 4, 4, 4, 3, 3, 2, 3, 2, 2, 2, 2, 2, 4, 3, 3, 3, 3, 3, 5, 4, 4, 3, 3, 2, 1, 1, 1, 1, 1, 1, 2, 2, 2, 2, 2, 2, 2, 2, 2, 2, 2, 2, 5, 4, 3, 3, 3, 2, 5, 5, 5, 5, 5, 5, 5, 4, 4, 4, 4, 4, 4, 4, 3, 3, 2, 2, 3, 3, 2, 2, 2, 1, 3, 2, 2, 2, 2, 2, 4, 3, 3, 2, 2, 2, 1, 1, 1, 1, 1, 1, 3, 2, 2, 2, 2, 2, 3, 3, 3, 2, 2, 2, 5, 4, 3, 3, 2, 1, 3, 3, 3, 3, 3, 3, 5, 3, 3, 3, 2, 1, 4, 3, 3, 3, 2, 2, 1, 1, 1, 1, 1, 1, 3, 3, 2, 2, 2, 1, 4, 3, 3, 3, 3, 3, 5, 4, 4, 4, 3, 3, 4, 4, 4, 4, 3, 3, 2, 1, 1, 1, 1, 1, 5, 4, 3, 2, 2, 1, 2, 2, 2, 1, 1, 1, 4, 3, 3, 3, 3, 3, 3, 3, 3, 3, 3, 3, 4, 4, 4, 4, 4, 4, 3, 2, 2, 2, 2, 2, 4, 4, 4, 4, 4, 4, 3, 2, 2, 2, 2, 2, 5, 4, 4, 4, 3, 3
 |4, 3, 2, 2, 1, 1, 4, 4, 4, 4, 4, 4, 3, 3, 3, 3, 2, 2, 3, 3, 2, 2, 2, 1, 4, 4, 4, 3, 3, 3, 4, 4, 4, 4, 4, 4, 3, 2, 2, 2, 2, 2, 4, 4, 3, 3, 3, 2, 4, 3, 3, 3, 3, 3, 1, 1, 1, 1, 1, 1, 5, 4, 4, 4, 4, 4, 5, 4, 4, 4, 4, 4, 5, 4, 4, 4, 4, 4, 2, 2, 2, 2, 2, 2, 3, 2, 2, 2, 2, 2, 2, 2, 2, 2, 1, 1, 4, 4, 3, 2, 2, 1, 4, 3, 3, 2, 1, 1, 4, 4, 4, 4, 3, 3, 4, 3, 3, 3, 1, 1, 2, 2, 2, 2, 2, 2, 4, 4, 3, 2, 2, 1, 2, 2, 2, 2, 2, 2, 3, 2, 2, 2, 2, 2, 3, 3, 3, 3, 3, 3, 4, 4, 3, 2, 2, 1, 4, 4, 4, 3, 3, 3, 5, 4, 3, 3, 3, 2, 4, 3, 3, 2, 2, 1, 5, 4, 3, 3, 2, 1, 2, 2, 2, 2, 2, 2, 4, 3, 3, 2, 2, 2, 2, 2, 2, 1, 1, 1, 5, 4, 4, 4, 4, 4, 4, 4, 4, 3, 3, 2, 5, 4, 3, 2, 1, 1, 3, 3, 2, 2, 2, 1, 3, 2, 2, 2, 1, 1, 1, 1, 1, 1, 1, 1, 4, 4, 4, 4, 4, 4, 3, 2, 2, 2, 2, 2, 4, 3, 3, 3, 2, 2, 4, 3, 3, 2, 2, 2, 5, 3, 3, 2, 1, 1, 2, 1, 1, 1, 1, 1, 4, 3, 3, 3, 3, 3, 5, 4, 4, 4, 3, 3, 3, 3, 3, 3, 2, 2, 3, 2, 2, 2, 2, 2, 3, 2, 2, 2, 1, 1
 |3, 3, 3, 2, 2, 2, 2, 2, 2, 1, 1, 1, 4, 4, 4, 4, 3, 3, 3, 3, 3, 3, 3, 3, 5, 5, 5, 5, 5, 5, 3, 3, 3, 3, 2, 2, 3, 3, 3, 3, 3, 3, 4, 4, 4, 3, 3, 3, 4, 3, 3, 2, 2, 2, 1, 1, 1, 1, 1, 1, 1, 1, 1, 1, 1, 1, 2, 2, 2, 2, 1, 1, 1, 1, 1, 1, 1, 1, 3, 3, 3, 2, 2, 2, 5, 4, 3, 3, 2, 2, 5, 4, 4, 3, 2, 2, 5, 4, 4, 4, 3, 3, 5, 4, 4, 3, 3, 3, 5, 4, 3, 2, 2, 1, 2, 2, 2, 2, 2, 2, 4, 3, 3, 3, 3, 3, 3, 3, 3, 3, 3, 3, 4, 3, 3, 2, 2, 1, 5, 4, 3, 3, 3, 2, 3, 3, 2, 2, 1, 1, 4, 4, 4, 4, 4, 4, 4, 4, 4, 4, 4, 4, 2, 2, 2, 2, 1, 1, 5, 4, 4, 4, 4, 4, 1, 1, 1, 1, 1, 1, 3, 3, 3, 3, 3, 3, 2, 2, 2, 1, 1, 1, 1, 1, 1, 1, 1, 1, 3, 2, 2, 2, 2, 2, 3, 2, 2, 2, 2, 2, 4, 4, 4, 3, 3, 2, 4, 4, 4, 4, 3, 3, 3, 3, 3, 3, 3, 3, 3, 3, 3, 2, 2, 1, 5, 3, 3, 3, 1, 1, 5, 5, 5, 5, 5, 5, 3, 2, 2, 2, 1, 1, 5, 5, 5, 5, 5, 5, 3, 2, 2, 2, 1, 1, 4, 4, 4, 3, 3, 3, 4, 3, 3, 3, 1, 1, 4, 4, 3, 3, 3, 2, 4, 3, 3, 2, 2, 1, 2, 1, 1, 1, 1, 1, 3, 3, 3, 3, 3, 3
 |11, 10, 10, 9, 8, 7, 22, 19, 18, 17, 12, 12, 26, 23, 20, 18, 16, 13, 11, 10, 9, 6, 5, 4, 21, 20, 17, 13, 11, 7, 20, 17, 16, 14, 12, 11, 20, 16, 15, 14, 10, 10, 18, 16, 15, 11, 9, 8, 28, 22, 18, 15, 9, 5, 20, 20, 20, 19, 18, 18, 21, 18, 16, 14, 11, 9, 26, 21, 17, 11, 7, 5, 26, 26, 22, 20, 19, 18, 20, 17, 13, 12, 8, 5, 23, 23, 21, 21, 19, 19, 13, 13, 10, 9, 7, 4, 20, 19, 15, 10, 7, 1, 17, 16, 15, 14, 14, 12, 24, 22, 19, 12, 12, 6, 21, 21, 21, 20, 20, 19, 18, 16, 15, 14, 13, 12, 13, 12, 10, 9, 9, 8, 23, 19, 19, 12, 9, 1, 22, 15, 14, 10, 7, 3, 29, 29, 28, 28, 26, 26, 22, 21, 21, 21, 20, 20, 26, 25, 25, 24, 22, 22, 29, 29, 28, 28, 27, 27, 15, 12, 11, 8, 8, 6, 9, 8, 7, 6, 3, 2, 22, 18, 16, 15, 14, 10, 13, 13, 12, 12, 11, 11, 29, 22, 20, 14, 12, 9, 12, 9, 9, 8, 5, 4, 27, 26, 25, 24, 23, 22, 28, 23, 22, 18, 15, 10, 27, 25, 21, 17, 15, 12, 10, 9, 6, 4, 2, 1, 22, 22, 21, 19, 18, 18, 25, 23, 22, 21, 19, 18, 20, 17, 14, 13, 11, 10, 24, 20, 17, 10, 7, 6, 22, 21, 20, 20, 18, 16, 23, 21, 20, 17, 16, 14, 20, 16, 11, 9, 8, 4, 29, 24, 23, 18, 18, 15, 26, 21, 17, 12, 7, 1, 18, 17, 16, 15, 14, 14, 17, 15, 14, 11, 8, 5, 12, 9, 7, 6, 4, 3
 |25, 23, 20, 18, 17, 15, 5, 4, 4, 4, 4, 4, 26, 26, 23, 21, 20, 17, 9, 9, 9, 9, 9, 9, 22, 16, 13, 11, 9, 3, 23, 23, 21, 20, 17, 16, 28, 25, 25, 23, 20, 20, 19, 18, 18, 17, 17, 17, 2, 2, 2, 2, 2, 2, 24, 20, 19, 16, 15, 14, 22, 21, 21, 21, 20, 20, 25, 20, 19, 11, 7, 5, 26, 26, 26, 25, 25, 25, 26, 23, 22, 18, 18, 16, 27, 27, 27, 27, 27, 27, 18, 16, 14, 13, 12, 11, 25, 23, 20, 18, 17, 14, 22, 22, 22, 22, 22, 22, 23, 21, 21, 20, 19, 18, 9, 8, 7, 7, 6, 5, 30, 25, 23, 21, 17, 16, 23, 22, 21, 19, 18, 17, 5, 4, 3, 3, 3, 2, 12, 10, 9, 7, 7, 6, 25, 24, 23, 22, 22, 21, 12, 11, 11, 11, 9, 9, 26, 26, 25, 25, 26, 25, 23, 21, 20, 17, 15, 14, 21, 17, 17, 15, 12, 11, 21, 21, 20, 19, 18, 18, 9, 9, 9, 9, 9, 9, 19, 19, 17, 17, 14, 14, 23, 20, 17, 15, 14, 10, 26, 26, 24, 22, 22, 21, 6, 6, 4, 3, 3, 2, 30, 29, 29, 28, 28, 28, 23, 23, 23, 22, 22, 21, 16, 16, 16, 16, 16, 16, 26, 24, 24, 22, 21, 21, 18, 17, 17, 17, 17, 17, 14, 11, 9, 6, 6, 3, 24, 21, 17, 15, 11, 9, 17, 16, 16, 15, 14, 14, 25, 23, 22, 19, 18, 15, 13, 12, 12, 12, 12, 12, 21, 17, 14, 11, 7, 4, 10, 10, 10, 10, 10, 10, 9, 8, 8, 8, 8, 8, 22, 18, 12, 12, 8, 5, 21, 21, 20, 20, 20, 19|];